8397904540348730797507,15,1,2,011,6,1,2,03,13,1,2,012,9,1,2,01,7,1,2,06,12,1,2,010,7,1,2,03,6,1,2,04,9,1,2,04,5,1,2,04,7,1,2,05,8,1,2,09,5,1,2,015,6,1,2,03,12,1,2,013,13,1,2,09,11,1,2,05,5,1,2,015,9,1,2,09,5,1,2,08,5,1,2,04,13,1,2,03,14,1,2,09,14,1,2,09,6,1,2,01,13,1,2,015,11,1,2,03,3,1,2,07,2,1,2,013,9,1,2,010,12,1,2,011,12,1,2,05,7,1,2,010,2,1,2,03,11,1,2,04,13,1,2,015,7,1,2,04,11,1,2,08,6,1,2,05,11,1,2,05,14,1,2,013,9,1,2,014,15,1,2,05,7,1,2,05,5,1,2,08,6,1,2,015,3,1,2,06,14,1,2,02,13,1,2,03,10,1,2,0